(declare-const X String)
; zzzvmkituktgr\x2fetie\sHost\x3ASoftActivityYeah\!whenu\x2Ecom
(assert (not (str.in_re X (re.++ (str.to_re "zzzvmkituktgr/etie") (re.union (str.to_re " ") (str.to_re "\u{9}") (str.to_re "\u{a}") (str.to_re "\u{c}") (str.to_re "\u{d}")) (str.to_re "Host:SoftActivity\u{13}Yeah!whenu.com\u{1b}\u{a}")))))
; /^dns\x7c\d+\x7c\d+\x7C[a-z0-9]+\x2E[a-z]{2,3}\x7C[a-z0-9]+\x7C/
(assert (not (str.in_re X (re.++ (str.to_re "/dns|") (re.+ (re.range "0" "9")) (str.to_re "|") (re.+ (re.range "0" "9")) (str.to_re "|") (re.+ (re.union (re.range "a" "z") (re.range "0" "9"))) (str.to_re ".") ((_ re.loop 2 3) (re.range "a" "z")) (str.to_re "|") (re.+ (re.union (re.range "a" "z") (re.range "0" "9"))) (str.to_re "|/\u{a}")))))
(check-sat)

(exit)
